\* Production_5_tonnes *\
Minimize
Cout_total: 1.2 AL1 + AL2 + 1.3 CU1 + 1.45 CU2 + 1.2 F1 + 1.5 F2 + 0.9 F3
Subject To
_C1: F1 <= 4000
_C10: 0.004 AL1 + 0.006 AL2 + 0.9 CU1 + 0.96 CU2 + 0.003 F3 >= 20
_C11: 0.004 AL1 + 0.006 AL2 + 0.9 CU1 + 0.96 CU2 + 0.003 F3 <= 30
_C12: 0.012 AL1 + 0.04 CU2 + 0.013 F1 + 0.008 F2 >= 60
_C13: 0.012 AL1 + 0.04 CU2 + 0.013 F1 + 0.008 F2 <= 82.5
_C2: F2 <= 3000
_C3: F3 <= 6000
_C4: CU1 <= 5000
_C5: CU2 <= 2000
_C6: AL1 <= 3000
_C7: AL2 <= 2500
_C8: 0.025 F1 + 0.03 F2 >= 100
_C9: 0.025 F1 + 0.03 F2 <= 150
total: AL1 + AL2 + CU1 + CU2 + F1 + F2 + F3 = 5000
End
